This is Ipopt version 3.14.16, running with linear solver MUMPS 5.7.3.

Number of nonzeros in equality constraint Jacobian...:        0
Number of nonzeros in inequality constraint Jacobian.:      544
Number of nonzeros in Lagrangian Hessian.............:        0

Total number of variables............................:       16
                     variables with only lower bounds:        0
                variables with lower and upper bounds:       16
                     variables with only upper bounds:        0
Total number of equality constraints.................:        0
Total number of inequality constraints...............:       34
        inequality constraints with only lower bounds:        0
   inequality constraints with lower and upper bounds:        0
        inequality constraints with only upper bounds:       34

iter    objective    inf_pr   inf_du lg(mu)  ||d||  lg(rg) alpha_du alpha_pr  ls
   0  5.3930519e+03 9.00e+07 1.88e+00   0.0 0.00e+00    -  0.00e+00 0.00e+00   0
   1  5.0017028e+04 1.05e+10 1.93e+04   0.2 7.84e+00    -  1.59e-02 1.08e-01f  1
   2  6.8460791e+04 2.09e+10 1.29e+05   0.2 4.59e+00    -  9.27e-02 4.63e-02f  1
   3  6.6231238e+04 2.02e+10 1.17e+05   0.2 1.44e+02    -  4.39e-03 1.86e-02h  1
   4  6.7747270e+04 2.06e+10 2.48e+05   0.2 2.23e+01    -  1.10e-01 3.49e-02h  1
   5  6.7852753e+04 2.06e+10 2.68e+05   0.2 1.01e+02    -  2.70e-02 2.41e-03h  3
   6  1.8326186e+04 1.36e+09 5.04e+04   0.2 1.53e+02    -  3.16e-02 3.22e-02f  1
   7  1.4198477e+04 2.19e+08 7.91e+03   0.2 3.63e+01    -  7.34e-02 2.49e-01f  1
   8  3.9724962e+04 1.40e+09 3.73e+03   0.2 2.62e+01    -  6.70e-02 3.45e-01h  1
   9  1.3855298e+03 1.47e+06 9.15e+02   1.4 4.07e+01    -  6.95e-01 5.68e-02h  1
iter    objective    inf_pr   inf_du lg(mu)  ||d||  lg(rg) alpha_du alpha_pr  ls
  10  7.9023309e+03 4.78e+07 8.80e+02  -4.7 3.80e+01    -  5.51e-02 9.84e-03h  1
  11  9.7543009e+03 7.27e+07 9.57e+02   0.1 9.21e+00    -  4.40e-01 9.58e-02h  1
  12  2.5091890e+02 3.25e+04 2.94e+03   1.9 3.14e+01    -  7.23e-01 3.19e-01f  1
  13  9.9741331e-02 7.17e-01 3.51e+03  -4.2 1.38e+01    -  1.53e-01 3.25e-01f  1
  14  1.4772459e-02 1.41e-01 8.32e+02  -0.0 9.51e+00    -  6.77e-01 9.20e-01h  1
  15  1.4983160e-02 1.27e-01 4.81e+02  -1.0 7.57e-01    -  8.25e-01 1.85e-01h  1
  16  1.6900487e-02 3.46e-02 2.69e+01  -1.1 6.16e-01    -  8.52e-01 9.90e-01h  1
  17  1.7371597e-02 1.32e-02 9.24e+00  -1.9 1.23e-01    -  9.55e-01 8.04e-01h  1
  18  1.7692764e-02 3.33e-03 1.51e-01  -3.3 8.24e-02    -  9.83e-01 9.92e-01h  1
  19  1.7821261e-02 7.29e-04 1.73e-01  -4.6 4.06e-02    -  1.00e+00 1.00e+00h  1
iter    objective    inf_pr   inf_du lg(mu)  ||d||  lg(rg) alpha_du alpha_pr  ls
  20  1.7863529e-02 1.14e-04 6.58e-02  -5.5 1.60e-02    -  1.00e+00 1.00e+00h  1
  21  1.7873545e-02 1.42e-05 9.47e-03  -6.4 4.28e-03    -  1.00e+00 1.00e+00h  1
  22  1.7876217e-02 0.00e+00 1.64e-03  -7.7 1.19e-03    -  1.00e+00 1.00e+00h  1
  23  1.7876503e-02 0.00e+00 6.36e-05  -9.3 1.69e-04    -  1.00e+00 1.00e+00h  1
  24  1.7867929e-02 0.00e+00 1.28e-06 -11.0 4.30e-04    -  1.00e+00 1.00e+00h  1

Number of Iterations....: 24

                                   (scaled)                 (unscaled)
Objective...............:   4.6775012877112424e-06    1.7867929139160670e-02
Dual infeasibility......:   1.2813713766352593e-06    4.8948042021535378e-03
Constraint violation....:   0.0000000000000000e+00    0.0000000000000000e+00
Variable bound violation:   0.0000000000000000e+00    0.0000000000000000e+00
Complementarity.........:   1.7706612570763789e-10    6.7638783882363761e-07
Overall NLP error.......:   1.2813713766352593e-06    4.8948042021535378e-03


Number of objective function evaluations             = 28
Number of objective gradient evaluations             = 25
Number of equality constraint evaluations            = 0
Number of inequality constraint evaluations          = 28
Number of equality constraint Jacobian evaluations   = 0
Number of inequality constraint Jacobian evaluations = 25
Number of Lagrangian Hessian evaluations             = 0
Total seconds in IPOPT                               = 4.026

EXIT: Optimal Solution Found.
